; benchmark generated from python API
(set-info :status unknown)
(declare-datatypes ((RealState 0)) (((RMk1 (rval1 Real)) (RMk2 (rval2 Real)))))
 (assert
 (forall ((|v11:0| Real) )(forall ((|v10:1| Real) )(forall ((|v9:2| Real) )(forall ((|v8:3| Real) )(exists ((|v7:4_st| RealState) (val!3504 Real) )(exists ((|v6:5_st| RealState) (val!3505 Real) )(exists ((|v5:6_st| RealState) (val!3506 Real) )(exists ((|v4:7_st| RealState) (val!3507 Real) )(forall ((|v3:8| Real) )(forall ((|v2:9| Real) )(forall ((|v1:10| Real) )(forall ((|v0:11| Real) )(let ((?x1830 (- 1.0)))
 (let ((?x110 (* 20.0 |v11:0|)))
 (let ((?x1264 (+ (+ (+ (* (- 18.0) (rval2 |v4:7_st|)) (* (- 19.0) |v0:11|)) ?x110) (* (- 7.0) |v9:2|))))
 (let ((?x568 (rval2 |v7:4_st|)))
 (let ((?x1340 (- 17.0)))
 (let ((?x855 (* ?x1340 ?x568)))
 (let ((?x362 (+ (+ (+ (* (- 8.0) |v3:8|) (* (- 20.0) |v11:0|)) (* 9.0 |v0:11|)) ?x855)))
 (let ((?x2955 (- 5.0)))
 (let ((?x2764 (* ?x2955 |v2:9|)))
 (let ((?x2222 (+ (+ (+ (* (- 13.0) (rval2 |v4:7_st|)) (* 13.0 (rval2 |v5:6_st|))) ?x2764) (* (- 3.0) |v8:3|))))
 (let ((?x2656 (- 13.0)))
 (let ((?x3200 (+ (+ (* (- 12.0) (rval2 |v5:6_st|)) (* (- 10.0) ?x568)) (* 5.0 (rval2 |v5:6_st|)))))
 (let (($x587 (and (or (<= (+ ?x3200 (* 19.0 |v9:2|)) ?x2656) (<= ?x2222 14.0)) (or (<= ?x362 14.0) (<= ?x1264 ?x1830)))))
 (let ((?x666 (- 18.0)))
 (let ((?x3156 (* ?x666 |v8:3|)))
 (let ((?x2590 (* ?x1830 |v1:10|)))
 (let ((?x2626 (+ (+ (+ (* (- 11.0) (rval2 |v5:6_st|)) (* (- 14.0) |v11:0|)) ?x2590) ?x3156)))
 (let ((?x2719 (rval2 |v4:7_st|)))
 (let ((?x1596 (* 12.0 ?x2719)))
 (let ((?x53 (+ (+ (+ (* (- 7.0) ?x2719) (* 5.0 |v11:0|)) (* (- 12.0) ?x2719)) ?x1596)))
 (let ((?x3001 (- 12.0)))
 (let ((?x2760 (- 9.0)))
 (let ((?x1289 (* ?x2760 |v2:9|)))
 (let ((?x744 (+ (+ (+ (* (- 14.0) |v0:11|) (* ?x666 |v9:2|)) (* (- 19.0) |v3:8|)) ?x1289)))
 (let ((?x2762 (- 8.0)))
 (let ((?x2919 (+ (+ (+ ?x1596 (* (- 7.0) |v11:0|)) ?x1289) (* (- 3.0) (rval2 |v6:5_st|)))))
 (let (($x281 (or (and (<= ?x2919 ?x2762) (<= ?x744 ?x3001)) (and (<= ?x53 9.0) (<= ?x2626 15.0)))))
 (let ((?x1355 (- 10.0)))
 (let ((?x2285 (+ (+ (+ (* 4.0 |v2:9|) (* ?x666 ?x2719)) (* 4.0 |v11:0|)) (* 15.0 ?x2719))))
 (let ((?x1409 (- 14.0)))
 (let ((?x2279 (* ?x1409 |v1:10|)))
 (let (($x593 (<= (+ (+ (+ (* 6.0 |v11:0|) (* ?x2760 |v0:11|)) (* ?x2760 |v0:11|)) ?x2279) ?x2762)))
 (let ((?x2619 (* 16.0 |v3:8|)))
 (let ((?x453 (+ (+ (+ (* (- 7.0) |v3:8|) (* (- 3.0) |v2:9|)) (* ?x3001 |v8:3|)) ?x2619)))
 (let ((?x2775 (- 20.0)))
 (let ((?x1133 (* ?x2775 |v0:11|)))
 (let ((?x1838 (+ (+ (+ (* 13.0 (rval2 |v5:6_st|)) (* 5.0 (rval2 |v6:5_st|))) ?x568) ?x1133)))
 (let ((?x1104 (+ (+ (+ (* 8.0 |v2:9|) (* (- 6.0) |v1:10|)) (* ?x1409 ?x568)) (* (- 15.0) |v10:1|))))
 (let ((?x1616 (+ (+ (+ (* 6.0 |v8:3|) (* 2.0 |v1:10|)) (* ?x2955 ?x568)) (* ?x2775 |v9:2|))))
 (let ((?x2623 (- 16.0)))
 (let ((?x947 (* 18.0 |v2:9|)))
 (let ((?x1536 (+ (+ (+ (* (- 4.0) |v0:11|) (* 5.0 |v0:11|)) (* ?x2760 (rval2 |v5:6_st|))) ?x947)))
 (let ((?x2372 (+ (+ (+ (* 5.0 |v9:2|) (* 8.0 |v0:11|)) (* 4.0 |v9:2|)) (* (- 6.0) (rval2 |v6:5_st|)))))
 (let (($x2803 (and (or (<= ?x2372 9.0) (<= ?x1536 ?x2623)) (and (<= ?x1616 ?x666) (<= ?x1104 14.0)))))
 (let (($x128 (or $x2803 (or (or (<= ?x1838 ?x2762) (<= ?x453 15.0)) (and $x593 (<= ?x2285 ?x1355))))))
 (let ((?x1898 (+ (+ (+ (* (- 3.0) |v10:1|) (* 15.0 |v10:1|)) (* 20.0 |v1:10|)) (* ?x2623 (rval2 |v5:6_st|)))))
 (let ((?x1224 (- 2.0)))
 (let ((?x1730 (rval2 |v6:5_st|)))
 (let ((?x238 (- 7.0)))
 (let ((?x2564 (* ?x238 ?x1730)))
 (let ((?x8 (+ (+ (+ (* (- 11.0) ?x2719) (* (- 4.0) ?x568)) (* ?x2760 |v1:10|)) ?x2564)))
 (let ((?x729 (- 15.0)))
 (let ((?x2500 (* 20.0 |v1:10|)))
 (let ((?x2477 (+ (+ (+ (* 0.0 |v1:10|) (* (- 6.0) |v10:1|)) (* 9.0 ?x2719)) ?x2500)))
 (let (($x1816 (<= (+ (+ (+ (* 0.0 |v2:9|) ?x2564) (* ?x1340 |v11:0|)) (* 15.0 ?x568)) 13.0)))
 (let ((?x1491 (+ (+ (+ (* ?x3001 ?x568) (* 6.0 |v1:10|)) (* 12.0 |v1:10|)) (* 10.0 |v11:0|))))
 (let ((?x2232 (+ (+ (+ (* 20.0 |v2:9|) (* ?x3001 |v11:0|)) (* ?x2955 ?x568)) (* ?x238 ?x568))))
 (let ((?x2798 (+ (+ (+ (* 4.0 |v11:0|) (* ?x666 ?x568)) (* ?x2775 ?x568)) (* ?x2955 ?x1730))))
 (let ((?x3047 (* ?x1830 |v3:8|)))
 (let (($x1573 (<= (+ (+ (+ (* 20.0 |v8:3|) (* ?x1409 |v2:9|)) (* ?x729 ?x568)) ?x3047) 15.0)))
 (let (($x2629 (and (and $x1573 (<= ?x2798 16.0)) (and (<= ?x2232 13.0) (<= ?x1491 15.0)))))
 (let (($x3046 (or $x2629 (or (and $x1816 (<= ?x2477 ?x729)) (or (<= ?x8 ?x1224) (<= ?x1898 3.0))))))
 (let (($x2173 (<= (+ (+ (+ (* 12.0 ?x568) (* (- 11.0) |v9:2|)) ?x2719) (* ?x1340 |v11:0|)) ?x2762)))
 (let ((?x1559 (rval2 |v5:6_st|)))
 (let ((?x892 (* 19.0 ?x1559)))
 (let ((?x1547 (* 2.0 |v1:10|)))
 (let ((?x867 (+ (+ (* ?x2623 |v1:10|) (* ?x2760 |v0:11|)) ?x1547)))
 (let ((?x518 (+ (+ (+ (* 16.0 ?x1730) (* ?x666 |v10:1|)) (* ?x1355 |v9:2|)) (* ?x666 ?x1559))))
 (let ((?x3175 (- 6.0)))
 (let ((?x175 (+ (+ (+ (* 9.0 |v3:8|) (* (- 19.0) ?x1730)) ?x1289) (* 8.0 ?x1730))))
 (let (($x1297 (or (and (<= ?x175 ?x3175) (<= ?x518 ?x2955)) (and (<= (+ ?x867 ?x892) ?x1355) $x2173))))
 (let ((?x1099 (- 3.0)))
 (let ((?x2214 (* 17.0 |v2:9|)))
 (let (($x2156 (<= (+ (+ (+ (* 14.0 |v11:0|) (* 12.0 |v9:2|)) (* ?x238 |v11:0|)) ?x2214) ?x1099)))
 (let (($x252 (<= (+ (+ (+ (* 2.0 |v11:0|) |v10:1|) (* ?x2623 |v3:8|)) (* 3.0 |v2:9|)) ?x238)))
 (let ((?x556 (* 17.0 |v9:2|)))
 (let ((?x1335 (+ (+ (* 2.0 |v2:9|) (* 9.0 |v3:8|)) (* 19.0 |v2:9|))))
 (let ((?x59 (+ (+ (+ (* 2.0 |v2:9|) (* 8.0 |v11:0|)) (* ?x2955 |v9:2|)) (* ?x2656 ?x568))))
 (let (($x1988 (and (and (and (<= ?x59 ?x1830) (<= (+ ?x1335 ?x556) 20.0)) (or $x252 $x2156)) $x1297)))
 (let (($x1948 (<= (+ (+ (+ (* 13.0 |v10:1|) (* 19.0 ?x568)) |v11:0|) (* 13.0 ?x2719)) 1.0)))
 (let ((?x1595 (* 19.0 |v0:11|)))
 (let (($x236 (<= (+ (+ (+ (* (- 11.0) |v0:11|) (* 9.0 |v0:11|)) (* ?x1340 |v3:8|)) ?x1595) 17.0)))
 (let ((?x2678 (* 5.0 ?x1730)))
 (let (($x3018 (<= (+ (+ (+ (* (- 4.0) ?x568) ?x855) (* 13.0 ?x1730)) ?x2678) 20.0)))
 (let ((?x129 (* 2.0 ?x2719)))
 (let (($x83 (<= (+ (+ (+ (* 19.0 |v3:8|) (* 12.0 |v3:8|)) (* 2.0 ?x1559)) ?x129) ?x1409)))
 (let ((?x978 (* 5.0 |v11:0|)))
 (let (($x2799 (<= (+ (+ (+ (* ?x666 ?x1730) (* ?x2623 |v2:9|)) (* ?x2762 |v3:8|)) ?x978) ?x3175)))
 (let ((?x790 (* 4.0 ?x1730)))
 (let (($x1274 (<= (+ (+ (+ (* 19.0 ?x568) (* 14.0 ?x2719)) (* ?x2955 |v10:1|)) ?x790) 6.0)))
 (let (($x1178 (<= (+ (+ (+ (* ?x1340 |v0:11|) |v9:2|) (* ?x2955 |v10:1|)) (* ?x1099 |v1:10|)) 20.0)))
 (let (($x364 (or (and $x1178 (<= (+ (+ (+ ?x3156 ?x110) (* ?x2775 ?x2719)) |v9:2|) 8.0)) (and $x1274 $x2799))))
 (let ((?x165 (* 9.0 |v0:11|)))
 (let (($x2266 (<= (+ (+ (+ (* 16.0 ?x568) (* ?x2775 ?x568)) (* ?x2656 |v11:0|)) ?x165) ?x2762)))
 (let (($x1463 (<= (+ (+ (+ (* 9.0 ?x1559) (* 18.0 |v0:11|)) ?x2619) (* 20.0 |v0:11|)) ?x666)))
 (let ((?x932 (* ?x666 |v3:8|)))
 (let (($x251 (<= (+ (+ (+ (* 0.0 ?x2719) (* 11.0 |v9:2|)) (* ?x1830 ?x1730)) ?x932) 7.0)))
 (let ((?x1706 (* 7.0 |v3:8|)))
 (let (($x1082 (<= (+ (+ (+ (* ?x2955 |v8:3|) (* 2.0 |v11:0|)) (* (- 4.0) |v9:2|)) ?x1706) 7.0)))
 (let ((?x862 (* 10.0 ?x568)))
 (let (($x1587 (<= (+ (+ (+ (* 15.0 ?x568) (* 11.0 |v1:10|)) (* 20.0 ?x1559)) ?x862) ?x666)))
 (let ((?x658 (* 4.0 |v11:0|)))
 (let (($x703 (<= (+ (+ (+ (* 9.0 |v10:1|) (* 8.0 |v3:8|)) (* 18.0 |v10:1|)) ?x658) ?x729)))
 (let ((?x1958 (* 2.0 |v2:9|)))
 (let (($x2436 (<= (+ (+ (+ (* 6.0 |v9:2|) (* ?x2760 ?x2719)) (* ?x238 ?x1559)) ?x1958) 7.0)))
 (let (($x2968 (and (or (or (and $x2436 $x703) (and $x1587 $x1082)) (and (or $x251 $x1463) $x2266)) (or $x364 (and (or $x83 $x3018) (and $x236 $x1948))))))
 (let ((?x1767 (+ (+ (+ (* ?x2955 |v1:10|) (* ?x666 |v1:10|)) (* 10.0 |v8:3|)) (* ?x729 |v9:2|))))
 (let ((?x2561 (* ?x1099 |v10:1|)))
 (let (($x2664 (<= (+ (+ (+ (* 12.0 |v8:3|) (* 0.0 |v9:2|)) (* 9.0 ?x568)) ?x2561) ?x1355)))
 (let ((?x2463 (* 11.0 ?x568)))
 (let (($x2771 (<= (+ (+ (+ (* ?x1830 |v2:9|) (* 14.0 |v0:11|)) (* 9.0 |v10:1|)) ?x2463) ?x1099)))
 (let ((?x2592 (* 3.0 |v9:2|)))
 (let (($x2382 (<= (+ (+ (+ (* 3.0 |v8:3|) (* ?x2775 |v2:9|)) (* (- 4.0) ?x2719)) ?x2592) ?x1099)))
 (let ((?x2175 (+ (+ (+ (* 18.0 ?x1559) (* ?x2762 |v9:2|)) (* 16.0 |v11:0|)) (* 9.0 |v11:0|))))
 (let ((?x3183 (* ?x3001 |v3:8|)))
 (let (($x1007 (<= (+ (+ (+ (* 18.0 |v10:1|) (* ?x3175 |v9:2|)) (* (- 4.0) |v10:1|)) ?x3183) 10.0)))
 (let ((?x2076 (+ (+ (+ (* ?x3001 |v10:1|) (* ?x3001 |v9:2|)) (* ?x1340 ?x1559)) (* 10.0 ?x1559))))
 (let ((?x981 (- 19.0)))
 (let ((?x2404 (* ?x981 |v1:10|)))
 (let (($x101 (<= (+ (+ (+ (* 18.0 ?x2719) (* ?x666 ?x2719)) (* 9.0 |v1:10|)) ?x2404) 11.0)))
 (let ((?x2957 (* 5.0 ?x568)))
 (let (($x819 (<= (+ (+ (+ (* ?x3175 |v11:0|) (* 17.0 |v1:10|)) (* ?x1099 |v0:11|)) ?x2957) ?x238)))
 (let (($x3128 (and (and (or $x819 $x101) (or (<= ?x2076 14.0) $x1007)) (and (or (<= ?x2175 ?x2775) $x2382) (and $x2771 $x2664)))))
 (let (($x2742 (and (and (and $x3128 (<= ?x1767 12.0)) $x2968) (and (or $x1988 $x3046) (or $x128 (or $x281 $x587))))))
 (let (($x3027 (not (= |v4:7_st| (RMk1 val!3507)))))
 (let (($x820 (not (= |v5:6_st| (RMk1 val!3506)))))
 (let (($x1286 (not (= |v6:5_st| (RMk1 val!3505)))))
 (let (($x2483 (not (= |v7:4_st| (RMk1 val!3504)))))
 (and $x2483 $x1286 $x820 $x3027 $x2742))))))))))))))))))))))))))))))))))))))))))))))))))))))))))))))))))))))))))))))))))))))))))))))))))))))))))))))))))))))))))))))))))
 )
 )
 )
 )
 )
 )
 )
 )
 )
 )
 )
 )
(check-sat)
